c FILE /home/rafael/Documents/HappySet/MIHS/inputs/happygen/output/graph_scale_free_k5_p0.2_v50_20241127_082441.txt
c SOURCE This is a scale-free graph formed for the happy graph colouring problem.
c DESCRIPTION It was generated using the problem generator of Rhyd Lewis
c
c GRAPH STATS
c Seed                             = -807732801
c Number of Nodes                  = 50
c Number of colours k              = 5
c Number of pre-assignments        = 10
c Number of links per new node     = 5
c Density                          = 0.191837
c 
c The degrees of nodes 1 to 50, respectively, are as follows 
c [26, 26, 21, 19, 18, 18, 17, 17, 16, 16, 14, 12, 12, 10, 10, 10, 9, 9, 8, 8, 8, 8, 8, 7, 7, 7, 
c  6, 6, 6, 6, 6, 6, 6, 6, 6, 5, 5, 5, 5, 5, 5, 5, 5, 5, 5, 5, 5, 5, 5, 5] 
c  
p edge 50 235 5
e 1 2
e 1 3
e 1 4
e 1 6
e 1 7
e 1 8
e 1 9
e 1 11
e 1 14
e 1 15
e 1 16
e 1 17
e 1 18
e 1 20
e 1 22
e 1 26
e 1 29
e 1 30
e 1 31
e 1 34
e 1 37
e 1 38
e 1 40
e 1 43
e 1 47
e 1 49
e 2 3
e 2 4
e 2 5
e 2 6
e 2 7
e 2 9
e 2 10
e 2 13
e 2 14
e 2 17
e 2 18
e 2 19
e 2 22
e 2 23
e 2 27
e 2 29
e 2 30
e 2 31
e 2 33
e 2 38
e 2 39
e 2 46
e 2 47
e 2 48
e 2 49
e 3 4
e 3 5
e 3 6
e 3 7
e 3 8
e 3 9
e 3 11
e 3 12
e 3 14
e 3 16
e 3 19
e 3 20
e 3 21
e 3 26
e 3 34
e 3 35
e 3 36
e 3 45
e 3 47
e 4 5
e 4 7
e 4 8
e 4 11
e 4 12
e 4 13
e 4 14
e 4 15
e 4 16
e 4 20
e 4 22
e 4 27
e 4 29
e 4 33
e 4 35
e 4 43
e 5 6
e 5 7
e 5 9
e 5 14
e 5 17
e 5 18
e 5 23
e 5 24
e 5 25
e 5 26
e 5 30
e 5 34
e 5 35
e 5 39
e 5 48
e 6 7
e 6 10
e 6 11
e 6 12
e 6 13
e 6 25
e 6 26
e 6 28
e 6 31
e 6 33
e 6 34
e 6 40
e 6 43
e 6 49
e 7 12
e 7 13
e 7 14
e 7 18
e 7 19
e 7 20
e 7 21
e 7 22
e 7 24
e 7 28
e 7 47
e 8 9
e 8 11
e 8 15
e 8 19
e 8 20
e 8 24
e 8 25
e 8 27
e 8 29
e 8 32
e 8 36
e 8 37
e 8 40
e 8 44
e 9 10
e 9 11
e 9 14
e 9 15
e 9 17
e 9 21
e 9 25
e 9 33
e 9 36
e 9 40
e 9 41
e 10 11
e 10 12
e 10 21
e 10 23
e 10 24
e 10 27
e 10 28
e 10 31
e 10 38
e 10 41
e 10 42
e 10 48
e 10 49
e 11 15
e 11 16
e 11 22
e 11 37
e 11 40
e 11 44
e 11 47
e 12 13
e 12 14
e 12 23
e 12 30
e 12 36
e 12 49
e 12 50
e 13 17
e 13 24
e 13 28
e 13 35
e 13 37
e 13 38
e 13 43
e 14 29
e 14 42
e 15 16
e 15 18
e 15 23
e 15 39
e 15 50
e 16 41
e 16 42
e 16 44
e 16 45
e 16 50
e 17 19
e 17 27
e 17 37
e 17 44
e 18 30
e 18 38
e 18 46
e 18 48
e 19 25
e 19 28
e 19 42
e 20 26
e 20 32
e 20 42
e 21 28
e 21 31
e 21 45
e 21 46
e 22 32
e 22 36
e 22 48
e 23 39
e 23 41
e 23 43
e 24 41
e 24 46
e 25 45
e 25 46
e 26 32
e 26 44
e 27 35
e 29 39
e 30 32
e 31 33
e 32 34
e 33 45
e 34 50
e 35 50
n 6 1
n 9 1
n 20 5
n 27 2
n 29 4
n 30 2
n 39 4
n 41 1
n 42 5
n 44 3
